# Solution for model MBA_ILP_BASE
# Objective value = 1.6057142857142857e+01
x_0_0_1_1 0
x_0_1_0_1 1
x_0_1_2_1 0
x_0_1_5_2 0
x_0_1_6_2 0
x_0_2_1_1 1
x_0_2_3_1 0
x_0_3_2_1 0
x_0_4_5_2 0
x_0_5_1_2 0
x_0_5_4_2 0
x_0_6_1_2 0
x_1_0_1_1 0
x_1_1_0_1 0
x_1_1_2_1 1
x_1_1_5_2 0
x_1_1_6_2 0
x_1_2_1_1 0
x_1_2_3_1 1
x_1_3_2_1 0
x_1_4_5_2 0
x_1_5_1_2 0
x_1_5_4_2 0
x_1_6_1_2 1
x_2_0_1_1 0
x_2_1_0_1 1
x_2_1_2_1 0
x_2_1_5_2 0
x_2_1_6_2 0
x_2_2_1_1 0
x_2_2_3_1 0
x_2_3_2_1 0
x_2_4_5_2 0
x_2_5_1_2 0
x_2_5_4_2 0
x_2_6_1_2 1
x_3_0_1_1 0
x_3_1_0_1 0
x_3_1_2_1 0
x_3_1_5_2 1
x_3_1_6_2 0
x_3_2_1_1 1
x_3_2_3_1 0
x_3_3_2_1 1
x_3_4_5_2 0
x_3_5_1_2 0
x_3_5_4_2 1
x_3_6_1_2 0
x_4_0_1_1 0
x_4_1_0_1 0
x_4_1_2_1 1
x_4_1_5_2 0
x_4_1_6_2 0
x_4_2_1_1 0
x_4_2_3_1 0
x_4_3_2_1 0
x_4_4_5_2 1
x_4_5_1_2 1
x_4_5_4_2 0
x_4_6_1_2 0
x_5_0_1_1 0
x_5_1_0_1 0
x_5_1_2_1 0
x_5_1_5_2 0
x_5_1_6_2 1
x_5_2_1_1 0
x_5_2_3_1 0
x_5_3_2_1 0
x_5_4_5_2 0
x_5_5_1_2 0
x_5_5_4_2 0
x_5_6_1_2 0
x_6_0_1_1 0
x_6_1_0_1 0
x_6_1_2_1 0
x_6_1_5_2 1
x_6_1_6_2 0
x_6_2_1_1 1
x_6_2_3_1 0
x_6_3_2_1 0
x_6_4_5_2 0
x_6_5_1_2 0
x_6_5_4_2 1
x_6_6_1_2 0
x_7_0_1_1 0
x_7_1_0_1 0
x_7_1_2_1 0
x_7_1_5_2 1
x_7_1_6_2 0
x_7_2_1_1 1
x_7_2_3_1 0
x_7_3_2_1 0
x_7_4_5_2 0
x_7_5_1_2 0
x_7_5_4_2 0
x_7_6_1_2 0
x_8_0_1_1 1
x_8_1_0_1 0
x_8_1_2_1 1
x_8_1_5_2 0
x_8_1_6_2 0
x_8_2_1_1 0
x_8_2_3_1 1
x_8_3_2_1 0
x_8_4_5_2 0
x_8_5_1_2 0
x_8_5_4_2 0
x_8_6_1_2 0
x_9_0_1_1 0
x_9_1_0_1 0
x_9_1_2_1 1
x_9_1_5_2 0
x_9_1_6_2 0
x_9_2_1_1 0
x_9_2_3_1 1
x_9_3_2_1 0
x_9_4_5_2 1
x_9_5_1_2 1
x_9_5_4_2 0
x_9_6_1_2 0
w_1_0 1
w_1_1 1
w_1_2 2
w_1_3 2
w_2_0 2
w_2_1 1
w_2_2 2
w_2_3 1
z_0_1 0
z_1_1 1
z_2_1 1
z_3_1 1
z_4_1 1
z_5_1 1
z_6_1 1
z_7_1 1
z_8_1 0
z_9_1 1
